(set-info :smt-lib-version 2.0)
(set-logic ALL)
; variable declaration
(declare-const r8_7 (_ BitVec 64))
(declare-const r8_6 (_ BitVec 64))
(declare-const r8_5 (_ BitVec 64))
(declare-const r8_4 (_ BitVec 64))
(declare-const r8_3 (_ BitVec 64))
(declare-const r8_2 (_ BitVec 64))
(declare-const r8_1 (_ BitVec 64))
(declare-const c3_1 (_ BitVec 64))
(declare-const r13_6 (_ BitVec 64))
(declare-const r13_5 (_ BitVec 64))
(declare-const r13_4 (_ BitVec 64))
(declare-const r13_3 (_ BitVec 64))
(declare-const r13_2 (_ BitVec 64))
(declare-const r13_1 (_ BitVec 64))
(declare-const L0x7fffffffdc98_1 (_ BitVec 64))
(declare-const L0x7fffffffdc60_1 (_ BitVec 64))
(declare-const a2_0 (_ BitVec 64))
(declare-const L0x55555557c008_1 (_ BitVec 64))
(declare-const a0_0 (_ BitVec 64))
(declare-const rcx_2 (_ BitVec 64))
(declare-const rcx_1 (_ BitVec 64))
(declare-const carry_20 (_ BitVec 1))
(declare-const carry_19 (_ BitVec 1))
(declare-const carry_18 (_ BitVec 1))
(declare-const carry_17 (_ BitVec 1))
(declare-const carry_16 (_ BitVec 1))
(declare-const carry_15 (_ BitVec 1))
(declare-const carry_14 (_ BitVec 1))
(declare-const carry_13 (_ BitVec 1))
(declare-const carry_12 (_ BitVec 1))
(declare-const carry_11 (_ BitVec 1))
(declare-const carry_10 (_ BitVec 1))
(declare-const carry_9 (_ BitVec 1))
(declare-const carry_8 (_ BitVec 1))
(declare-const carry_7 (_ BitVec 1))
(declare-const carry_6 (_ BitVec 1))
(declare-const carry_5 (_ BitVec 1))
(declare-const carry_4 (_ BitVec 1))
(declare-const carry_3 (_ BitVec 1))
(declare-const carry_2 (_ BitVec 1))
(declare-const carry_1 (_ BitVec 1))
(declare-const carryo3_0 (_ BitVec 1))
(declare-const m1_0 (_ BitVec 64))
(declare-const overflow_2 (_ BitVec 1))
(declare-const overflow_1 (_ BitVec 1))
(declare-const r10_7 (_ BitVec 64))
(declare-const r10_6 (_ BitVec 64))
(declare-const r10_5 (_ BitVec 64))
(declare-const r10_4 (_ BitVec 64))
(declare-const r10_3 (_ BitVec 64))
(declare-const r10_2 (_ BitVec 64))
(declare-const r10_1 (_ BitVec 64))
(declare-const L0x55555557c010_1 (_ BitVec 64))
(declare-const carryo1_0 (_ BitVec 1))
(declare-const m3_0 (_ BitVec 64))
(declare-const L0x7fffffffdca8_1 (_ BitVec 64))
(declare-const rdx_2 (_ BitVec 64))
(declare-const rdx_1 (_ BitVec 64))
(declare-const a1_0 (_ BitVec 64))
(declare-const r11_7 (_ BitVec 64))
(declare-const r11_6 (_ BitVec 64))
(declare-const r11_5 (_ BitVec 64))
(declare-const r11_4 (_ BitVec 64))
(declare-const r11_3 (_ BitVec 64))
(declare-const r11_2 (_ BitVec 64))
(declare-const r11_1 (_ BitVec 64))
(declare-const L0x55555557c018_1 (_ BitVec 64))
(declare-const m0_0 (_ BitVec 64))
(declare-const L0x7fffffffdc68_1 (_ BitVec 64))
(declare-const r9_7 (_ BitVec 64))
(declare-const r9_6 (_ BitVec 64))
(declare-const r9_5 (_ BitVec 64))
(declare-const r9_4 (_ BitVec 64))
(declare-const r9_3 (_ BitVec 64))
(declare-const r9_2 (_ BitVec 64))
(declare-const r9_1 (_ BitVec 64))
(declare-const carryo2_0 (_ BitVec 1))
(declare-const carryo5_0 (_ BitVec 1))
(declare-const r12_2 (_ BitVec 64))
(declare-const r12_1 (_ BitVec 64))
(declare-const c1_1 (_ BitVec 64))
(declare-const L0x7fffffffdc58_1 (_ BitVec 64))
(declare-const L0x7fffffffdca0_1 (_ BitVec 64))
(declare-const rax_2 (_ BitVec 64))
(declare-const rax_1 (_ BitVec 64))
(declare-const m2_0 (_ BitVec 64))
(declare-const carryo4_0 (_ BitVec 1))
(declare-const L0x55555557c000_1 (_ BitVec 64))
(declare-const c2_1 (_ BitVec 64))
(declare-const carryo6_0 (_ BitVec 1))
(declare-const a3_0 (_ BitVec 64))
(declare-const L0x7fffffffdc50_1 (_ BitVec 64))
(declare-const c0_1 (_ BitVec 64))
(declare-const L0x7fffffffdc90_1 (_ BitVec 64))
; range precondition and program 
(assert (and (and (and (and (= m0_0 #xFFFFFFFFFFFFFFFF) (= m1_0 #x00000000FFFFFFFF)) (= m2_0 #x0000000000000000)) (= m3_0 #xFFFFFFFF00000001)) (bvult (bvadd (bvmul ((_ zero_extend 192) a0_0) #x0000000000000000000000000000000000000000000000000000000000000001) (bvadd (bvmul ((_ zero_extend 192) a1_0) #x0000000000000000000000000000000000000000000000010000000000000000) (bvadd (bvmul ((_ zero_extend 192) a2_0) #x0000000000000000000000000000000100000000000000000000000000000000) (bvmul ((_ zero_extend 192) a3_0) #x0000000000000001000000000000000000000000000000000000000000000000)))) (bvadd (bvmul ((_ zero_extend 192) m0_0) #x0000000000000000000000000000000000000000000000000000000000000001) (bvadd (bvmul ((_ zero_extend 192) m1_0) #x0000000000000000000000000000000000000000000000010000000000000000) (bvadd (bvmul ((_ zero_extend 192) m2_0) #x0000000000000000000000000000000100000000000000000000000000000000) (bvmul ((_ zero_extend 192) m3_0) #x0000000000000001000000000000000000000000000000000000000000000000)))))))
(assert (= L0x7fffffffdc50_1 a0_0))
(assert (= L0x7fffffffdc58_1 a1_0))
(assert (= L0x7fffffffdc60_1 a2_0))
(assert (= L0x7fffffffdc68_1 a3_0))
(assert (= L0x55555557c000_1 #xFFFFFFFFFFFFFFFF))
(assert (= L0x55555557c008_1 #x00000000FFFFFFFF))
(assert (= L0x55555557c010_1 #x0000000000000000))
(assert (= L0x55555557c018_1 #xFFFFFFFF00000001))
(assert (= r8_1 L0x7fffffffdc50_1))
(assert (= r13_1 #x0000000000000000))
(assert (= carry_1 #b0))
(assert (= overflow_1 #b0))
(assert (= r9_1 L0x7fffffffdc58_1))
(assert (and (= carry_2 ((_ extract 64 64) (bvadd ((_ zero_extend 1) r8_1) ((_ zero_extend 1) r8_1)))) (= r8_2 ((_ extract 63 0) (bvadd ((_ zero_extend 1) r8_1) ((_ zero_extend 1) r8_1))))))
(assert (= r10_1 L0x7fffffffdc60_1))
(assert (and (= carry_3 ((_ extract 64 64) (bvadd (bvadd ((_ zero_extend 1) r9_1) ((_ zero_extend 1) r9_1)) ((_ zero_extend 64) carry_2)))) (= r9_2 ((_ extract 63 0) (bvadd (bvadd ((_ zero_extend 1) r9_1) ((_ zero_extend 1) r9_1)) ((_ zero_extend 64) carry_2))))))
(assert (= r11_1 L0x7fffffffdc68_1))
(assert (= rax_1 r8_2))
(assert (and (= carry_4 ((_ extract 64 64) (bvadd (bvadd ((_ zero_extend 1) r10_1) ((_ zero_extend 1) r10_1)) ((_ zero_extend 64) carry_3)))) (= r10_2 ((_ extract 63 0) (bvadd (bvadd ((_ zero_extend 1) r10_1) ((_ zero_extend 1) r10_1)) ((_ zero_extend 64) carry_3))))))
(assert (and (= carry_5 ((_ extract 64 64) (bvadd (bvadd ((_ zero_extend 1) r11_1) ((_ zero_extend 1) r11_1)) ((_ zero_extend 64) carry_4)))) (= r11_2 ((_ extract 63 0) (bvadd (bvadd ((_ zero_extend 1) r11_1) ((_ zero_extend 1) r11_1)) ((_ zero_extend 64) carry_4))))))
(assert (= rdx_1 r9_2))
(assert (= r13_2 (bvadd (bvadd r13_1 #x0000000000000000) ((_ zero_extend 63) carry_5))))
(assert (= carryo1_0 carry_5))
(assert (and (= carry_6 ((_ extract 64 64) (bvsub ((_ zero_extend 1) r8_2) ((_ zero_extend 1) #xFFFFFFFFFFFFFFFF)))) (= r8_3 ((_ extract 63 0) (bvsub ((_ zero_extend 1) r8_2) ((_ zero_extend 1) #xFFFFFFFFFFFFFFFF))))))
(assert (= rcx_1 r10_2))
(assert (and (= carry_7 ((_ extract 64 64) (bvsub ((_ zero_extend 1) r9_2) (bvadd ((_ zero_extend 1) L0x55555557c008_1) ((_ zero_extend 64) carry_6))))) (= r9_3 ((_ extract 63 0) (bvsub ((_ zero_extend 1) r9_2) (bvadd ((_ zero_extend 1) L0x55555557c008_1) ((_ zero_extend 64) carry_6)))))))
(assert (and (= carry_8 ((_ extract 64 64) (bvsub ((_ zero_extend 1) r10_2) (bvadd ((_ zero_extend 1) #x0000000000000000) ((_ zero_extend 64) carry_7))))) (= r10_3 ((_ extract 63 0) (bvsub ((_ zero_extend 1) r10_2) (bvadd ((_ zero_extend 1) #x0000000000000000) ((_ zero_extend 64) carry_7)))))))
(assert (= r12_1 r11_2))
(assert (and (= carry_9 ((_ extract 64 64) (bvsub ((_ zero_extend 1) r11_2) (bvadd ((_ zero_extend 1) L0x55555557c018_1) ((_ zero_extend 64) carry_8))))) (= r11_3 ((_ extract 63 0) (bvsub ((_ zero_extend 1) r11_2) (bvadd ((_ zero_extend 1) L0x55555557c018_1) ((_ zero_extend 64) carry_8)))))))
(assert (= carryo2_0 carry_9))
(assert (and (= carry_10 ((_ extract 64 64) (bvsub ((_ zero_extend 1) r13_2) (bvadd ((_ zero_extend 1) #x0000000000000000) ((_ zero_extend 64) carry_9))))) (= r13_3 ((_ extract 63 0) (bvsub ((_ zero_extend 1) r13_2) (bvadd ((_ zero_extend 1) #x0000000000000000) ((_ zero_extend 64) carry_9)))))))
(assert (= carryo3_0 carry_10))
(assert true)
(assert true)
(assert true)
(assert true)
(assert true)
(assert (= r8_4 (ite (= carry_10 #b1) rax_1 r8_3)))
(assert (= r9_4 (ite (= carry_10 #b1) rdx_1 r9_3)))
(assert (= r10_4 (ite (= carry_10 #b1) rcx_1 r10_3)))
(assert (= r11_4 (ite (= carry_10 #b1) r12_1 r11_3)))
(assert (= r13_4 #x0000000000000000))
(assert (= carry_11 #b0))
(assert (= overflow_2 #b0))
(assert (and (= carry_12 ((_ extract 64 64) (bvadd ((_ zero_extend 1) r8_4) ((_ zero_extend 1) L0x7fffffffdc50_1)))) (= r8_5 ((_ extract 63 0) (bvadd ((_ zero_extend 1) r8_4) ((_ zero_extend 1) L0x7fffffffdc50_1))))))
(assert (and (= carry_13 ((_ extract 64 64) (bvadd (bvadd ((_ zero_extend 1) r9_4) ((_ zero_extend 1) L0x7fffffffdc58_1)) ((_ zero_extend 64) carry_12)))) (= r9_5 ((_ extract 63 0) (bvadd (bvadd ((_ zero_extend 1) r9_4) ((_ zero_extend 1) L0x7fffffffdc58_1)) ((_ zero_extend 64) carry_12))))))
(assert (= rax_2 r8_5))
(assert (and (= carry_14 ((_ extract 64 64) (bvadd (bvadd ((_ zero_extend 1) r10_4) ((_ zero_extend 1) L0x7fffffffdc60_1)) ((_ zero_extend 64) carry_13)))) (= r10_5 ((_ extract 63 0) (bvadd (bvadd ((_ zero_extend 1) r10_4) ((_ zero_extend 1) L0x7fffffffdc60_1)) ((_ zero_extend 64) carry_13))))))
(assert (and (= carry_15 ((_ extract 64 64) (bvadd (bvadd ((_ zero_extend 1) r11_4) ((_ zero_extend 1) L0x7fffffffdc68_1)) ((_ zero_extend 64) carry_14)))) (= r11_5 ((_ extract 63 0) (bvadd (bvadd ((_ zero_extend 1) r11_4) ((_ zero_extend 1) L0x7fffffffdc68_1)) ((_ zero_extend 64) carry_14))))))
(assert (= rdx_2 r9_5))
(assert (= r13_5 (bvadd (bvadd r13_4 #x0000000000000000) ((_ zero_extend 63) carry_15))))
(assert (= carryo4_0 carry_15))
(assert (and (= carry_16 ((_ extract 64 64) (bvsub ((_ zero_extend 1) r8_5) ((_ zero_extend 1) #xFFFFFFFFFFFFFFFF)))) (= r8_6 ((_ extract 63 0) (bvsub ((_ zero_extend 1) r8_5) ((_ zero_extend 1) #xFFFFFFFFFFFFFFFF))))))
(assert (= rcx_2 r10_5))
(assert (and (= carry_17 ((_ extract 64 64) (bvsub ((_ zero_extend 1) r9_5) (bvadd ((_ zero_extend 1) L0x55555557c008_1) ((_ zero_extend 64) carry_16))))) (= r9_6 ((_ extract 63 0) (bvsub ((_ zero_extend 1) r9_5) (bvadd ((_ zero_extend 1) L0x55555557c008_1) ((_ zero_extend 64) carry_16)))))))
(assert (and (= carry_18 ((_ extract 64 64) (bvsub ((_ zero_extend 1) r10_5) (bvadd ((_ zero_extend 1) #x0000000000000000) ((_ zero_extend 64) carry_17))))) (= r10_6 ((_ extract 63 0) (bvsub ((_ zero_extend 1) r10_5) (bvadd ((_ zero_extend 1) #x0000000000000000) ((_ zero_extend 64) carry_17)))))))
(assert (= r12_2 r11_5))
(assert (and (= carry_19 ((_ extract 64 64) (bvsub ((_ zero_extend 1) r11_5) (bvadd ((_ zero_extend 1) L0x55555557c018_1) ((_ zero_extend 64) carry_18))))) (= r11_6 ((_ extract 63 0) (bvsub ((_ zero_extend 1) r11_5) (bvadd ((_ zero_extend 1) L0x55555557c018_1) ((_ zero_extend 64) carry_18)))))))
(assert (= carryo5_0 carry_19))
(assert (and (= carry_20 ((_ extract 64 64) (bvsub ((_ zero_extend 1) r13_5) (bvadd ((_ zero_extend 1) #x0000000000000000) ((_ zero_extend 64) carry_19))))) (= r13_6 ((_ extract 63 0) (bvsub ((_ zero_extend 1) r13_5) (bvadd ((_ zero_extend 1) #x0000000000000000) ((_ zero_extend 64) carry_19)))))))
(assert (= carryo6_0 carry_20))
(assert true)
(assert true)
(assert true)
(assert true)
(assert true)
(assert (= r8_7 (ite (= carry_20 #b1) rax_2 r8_6)))
(assert (= r9_7 (ite (= carry_20 #b1) rdx_2 r9_6)))
(assert (= L0x7fffffffdc90_1 r8_7))
(assert (= r10_7 (ite (= carry_20 #b1) rcx_2 r10_6)))
(assert (= L0x7fffffffdc98_1 r9_7))
(assert (= r11_7 (ite (= carry_20 #b1) r12_2 r11_6)))
(assert (= L0x7fffffffdca0_1 r10_7))
(assert (= L0x7fffffffdca8_1 r11_7))
(assert (= c0_1 L0x7fffffffdc90_1))
(assert (= c1_1 L0x7fffffffdc98_1))
(assert (= c2_1 L0x7fffffffdca0_1))
(assert (= c3_1 L0x7fffffffdca8_1))
; algebraic precondition and program
(assert (and (and (and (eqP (PConst (bv2nat m0_0)) (PConst 18446744073709551615)) (eqP (PConst (bv2nat m1_0)) (PConst 4294967295))) (eqP (PConst (bv2nat m2_0)) (PConst 0))) (eqP (PConst (bv2nat m3_0)) (PConst 18446744069414584321))))
(assert (eqP (PConst (bv2nat L0x7fffffffdc50_1)) (PConst (bv2nat a0_0))))
(assert (eqP (PConst (bv2nat L0x7fffffffdc58_1)) (PConst (bv2nat a1_0))))
(assert (eqP (PConst (bv2nat L0x7fffffffdc60_1)) (PConst (bv2nat a2_0))))
(assert (eqP (PConst (bv2nat L0x7fffffffdc68_1)) (PConst (bv2nat a3_0))))
(assert (eqP (PConst (bv2nat L0x55555557c000_1)) (PConst 18446744073709551615)))
(assert (eqP (PConst (bv2nat L0x55555557c008_1)) (PConst 4294967295)))
(assert (eqP (PConst (bv2nat L0x55555557c010_1)) (PConst 0)))
(assert (eqP (PConst (bv2nat L0x55555557c018_1)) (PConst 18446744069414584321)))
(assert (eqP (PConst (bv2nat r8_1)) (PConst (bv2nat L0x7fffffffdc50_1))))
(assert (eqP (PConst (bv2nat r13_1)) (PConst 0)))
(assert (eqP (PConst (bv2nat carry_1)) (PConst 0)))
(assert (eqP (PConst (bv2nat overflow_1)) (PConst 0)))
(assert (eqP (PConst (bv2nat r9_1)) (PConst (bv2nat L0x7fffffffdc58_1))))
(assert (eqP (PAdd (PConst (bv2nat r8_2)) (PMul (PConst (bv2nat carry_2)) (PConst 18446744073709551616))) (PAdd (PConst (bv2nat r8_1)) (PConst (bv2nat r8_1)))))
(assert (eqP (PMul (PConst (bv2nat carry_2)) (PSub (PConst (bv2nat carry_2)) (PConst 1))) (PConst 0)))
(assert (eqP (PConst (bv2nat r10_1)) (PConst (bv2nat L0x7fffffffdc60_1))))
(assert (eqP (PAdd (PConst (bv2nat r9_2)) (PMul (PConst (bv2nat carry_3)) (PConst 18446744073709551616))) (PAdd (PAdd (PConst (bv2nat r9_1)) (PConst (bv2nat r9_1))) (PConst (bv2nat carry_2)))))
(assert (eqP (PMul (PConst (bv2nat carry_3)) (PSub (PConst (bv2nat carry_3)) (PConst 1))) (PConst 0)))
(assert (eqP (PConst (bv2nat r11_1)) (PConst (bv2nat L0x7fffffffdc68_1))))
(assert (eqP (PConst (bv2nat rax_1)) (PConst (bv2nat r8_2))))
(assert (eqP (PAdd (PConst (bv2nat r10_2)) (PMul (PConst (bv2nat carry_4)) (PConst 18446744073709551616))) (PAdd (PAdd (PConst (bv2nat r10_1)) (PConst (bv2nat r10_1))) (PConst (bv2nat carry_3)))))
(assert (eqP (PMul (PConst (bv2nat carry_4)) (PSub (PConst (bv2nat carry_4)) (PConst 1))) (PConst 0)))
(assert (eqP (PAdd (PConst (bv2nat r11_2)) (PMul (PConst (bv2nat carry_5)) (PConst 18446744073709551616))) (PAdd (PAdd (PConst (bv2nat r11_1)) (PConst (bv2nat r11_1))) (PConst (bv2nat carry_4)))))
(assert (eqP (PMul (PConst (bv2nat carry_5)) (PSub (PConst (bv2nat carry_5)) (PConst 1))) (PConst 0)))
(assert (eqP (PConst (bv2nat rdx_1)) (PConst (bv2nat r9_2))))
(assert (eqP (PConst (bv2nat r13_2)) (PAdd (PAdd (PConst (bv2nat r13_1)) (PConst 0)) (PConst (bv2nat carry_5)))))
(assert (eqP (PConst (bv2nat carryo1_0)) (PConst (bv2nat carry_5))))
(assert (eqP (PAdd (PSub (PConst (bv2nat r8_2)) (PConst 18446744073709551615)) (PMul (PConst (bv2nat carry_6)) (PConst 18446744073709551616))) (PConst (bv2nat r8_3))))
(assert (eqP (PMul (PConst (bv2nat carry_6)) (PSub (PConst (bv2nat carry_6)) (PConst 1))) (PConst 0)))
(assert (eqP (PConst (bv2nat rcx_1)) (PConst (bv2nat r10_2))))
(assert (eqP (PAdd (PConst (bv2nat r9_3)) (PMul (PNeg (PConst (bv2nat carry_7))) (PConst 18446744073709551616))) (PSub (PSub (PConst (bv2nat r9_2)) (PConst (bv2nat L0x55555557c008_1))) (PConst (bv2nat carry_6)))))
(assert (eqP (PMul (PConst (bv2nat carry_7)) (PSub (PConst (bv2nat carry_7)) (PConst 1))) (PConst 0)))
(assert (eqP (PAdd (PConst (bv2nat r10_3)) (PMul (PNeg (PConst (bv2nat carry_8))) (PConst 18446744073709551616))) (PSub (PSub (PConst (bv2nat r10_2)) (PConst 0)) (PConst (bv2nat carry_7)))))
(assert (eqP (PMul (PConst (bv2nat carry_8)) (PSub (PConst (bv2nat carry_8)) (PConst 1))) (PConst 0)))
(assert (eqP (PConst (bv2nat r12_1)) (PConst (bv2nat r11_2))))
(assert (eqP (PAdd (PConst (bv2nat r11_3)) (PMul (PNeg (PConst (bv2nat carry_9))) (PConst 18446744073709551616))) (PSub (PSub (PConst (bv2nat r11_2)) (PConst (bv2nat L0x55555557c018_1))) (PConst (bv2nat carry_8)))))
(assert (eqP (PMul (PConst (bv2nat carry_9)) (PSub (PConst (bv2nat carry_9)) (PConst 1))) (PConst 0)))
(assert (eqP (PConst (bv2nat carryo2_0)) (PConst (bv2nat carry_9))))
(assert (eqP (PAdd (PConst (bv2nat r13_3)) (PMul (PNeg (PConst (bv2nat carry_10))) (PConst 18446744073709551616))) (PSub (PSub (PConst (bv2nat r13_2)) (PConst 0)) (PConst (bv2nat carry_9)))))
(assert (eqP (PMul (PConst (bv2nat carry_10)) (PSub (PConst (bv2nat carry_10)) (PConst 1))) (PConst 0)))
(assert (eqP (PConst (bv2nat carryo3_0)) (PConst (bv2nat carry_10))))
(assert (eqP (PMul (PMul (PSub (PConst (bv2nat carryo2_0)) (PConst 0)) (PSub (PConst (bv2nat carryo1_0)) (PConst 1))) (PSub (PConst (bv2nat carryo3_0)) (PConst 1))) (PConst 0)))
(assert (eqP (PMul (PSub (PConst (bv2nat carryo1_0)) (PConst 0)) (PSub (PConst (bv2nat carryo3_0)) (PConst 0))) (PConst 0)))
(assert (eqP (PMul (PSub (PConst (bv2nat carryo2_0)) (PConst 1)) (PSub (PConst (bv2nat carryo1_0)) (PConst 1))) (PConst 1)))
(assert (eqP (PMul (PSub (PConst (bv2nat carryo2_0)) (PConst 1)) (PSub (PConst (bv2nat carryo3_0)) (PConst 1))) (PConst 1)))
(assert (eqP (PConst (bv2nat r8_4)) (PAdd (PMul (PConst (bv2nat carry_10)) (PConst (bv2nat rax_1))) (PMul (PSub (PConst 1) (PConst (bv2nat carry_10))) (PConst (bv2nat r8_3))))))
(assert (eqP (PConst (bv2nat r9_4)) (PAdd (PMul (PConst (bv2nat carry_10)) (PConst (bv2nat rdx_1))) (PMul (PSub (PConst 1) (PConst (bv2nat carry_10))) (PConst (bv2nat r9_3))))))
(assert (eqP (PConst (bv2nat r10_4)) (PAdd (PMul (PConst (bv2nat carry_10)) (PConst (bv2nat rcx_1))) (PMul (PSub (PConst 1) (PConst (bv2nat carry_10))) (PConst (bv2nat r10_3))))))
(assert (eqP (PConst (bv2nat r11_4)) (PAdd (PMul (PConst (bv2nat carry_10)) (PConst (bv2nat r12_1))) (PMul (PSub (PConst 1) (PConst (bv2nat carry_10))) (PConst (bv2nat r11_3))))))
(assert (eqP (PConst (bv2nat r13_4)) (PConst 0)))
(assert (eqP (PConst (bv2nat carry_11)) (PConst 0)))
(assert (eqP (PConst (bv2nat overflow_2)) (PConst 0)))
(assert (eqP (PAdd (PConst (bv2nat r8_5)) (PMul (PConst (bv2nat carry_12)) (PConst 18446744073709551616))) (PAdd (PConst (bv2nat r8_4)) (PConst (bv2nat L0x7fffffffdc50_1)))))
(assert (eqP (PMul (PConst (bv2nat carry_12)) (PSub (PConst (bv2nat carry_12)) (PConst 1))) (PConst 0)))
(assert (eqP (PAdd (PConst (bv2nat r9_5)) (PMul (PConst (bv2nat carry_13)) (PConst 18446744073709551616))) (PAdd (PAdd (PConst (bv2nat r9_4)) (PConst (bv2nat L0x7fffffffdc58_1))) (PConst (bv2nat carry_12)))))
(assert (eqP (PMul (PConst (bv2nat carry_13)) (PSub (PConst (bv2nat carry_13)) (PConst 1))) (PConst 0)))
(assert (eqP (PConst (bv2nat rax_2)) (PConst (bv2nat r8_5))))
(assert (eqP (PAdd (PConst (bv2nat r10_5)) (PMul (PConst (bv2nat carry_14)) (PConst 18446744073709551616))) (PAdd (PAdd (PConst (bv2nat r10_4)) (PConst (bv2nat L0x7fffffffdc60_1))) (PConst (bv2nat carry_13)))))
(assert (eqP (PMul (PConst (bv2nat carry_14)) (PSub (PConst (bv2nat carry_14)) (PConst 1))) (PConst 0)))
(assert (eqP (PAdd (PConst (bv2nat r11_5)) (PMul (PConst (bv2nat carry_15)) (PConst 18446744073709551616))) (PAdd (PAdd (PConst (bv2nat r11_4)) (PConst (bv2nat L0x7fffffffdc68_1))) (PConst (bv2nat carry_14)))))
(assert (eqP (PMul (PConst (bv2nat carry_15)) (PSub (PConst (bv2nat carry_15)) (PConst 1))) (PConst 0)))
(assert (eqP (PConst (bv2nat rdx_2)) (PConst (bv2nat r9_5))))
(assert (eqP (PConst (bv2nat r13_5)) (PAdd (PAdd (PConst (bv2nat r13_4)) (PConst 0)) (PConst (bv2nat carry_15)))))
(assert (eqP (PConst (bv2nat carryo4_0)) (PConst (bv2nat carry_15))))
(assert (eqP (PAdd (PSub (PConst (bv2nat r8_5)) (PConst 18446744073709551615)) (PMul (PConst (bv2nat carry_16)) (PConst 18446744073709551616))) (PConst (bv2nat r8_6))))
(assert (eqP (PMul (PConst (bv2nat carry_16)) (PSub (PConst (bv2nat carry_16)) (PConst 1))) (PConst 0)))
(assert (eqP (PConst (bv2nat rcx_2)) (PConst (bv2nat r10_5))))
(assert (eqP (PAdd (PConst (bv2nat r9_6)) (PMul (PNeg (PConst (bv2nat carry_17))) (PConst 18446744073709551616))) (PSub (PSub (PConst (bv2nat r9_5)) (PConst (bv2nat L0x55555557c008_1))) (PConst (bv2nat carry_16)))))
(assert (eqP (PMul (PConst (bv2nat carry_17)) (PSub (PConst (bv2nat carry_17)) (PConst 1))) (PConst 0)))
(assert (eqP (PAdd (PConst (bv2nat r10_6)) (PMul (PNeg (PConst (bv2nat carry_18))) (PConst 18446744073709551616))) (PSub (PSub (PConst (bv2nat r10_5)) (PConst 0)) (PConst (bv2nat carry_17)))))
(assert (eqP (PMul (PConst (bv2nat carry_18)) (PSub (PConst (bv2nat carry_18)) (PConst 1))) (PConst 0)))
(assert (eqP (PConst (bv2nat r12_2)) (PConst (bv2nat r11_5))))
(assert (eqP (PAdd (PConst (bv2nat r11_6)) (PMul (PNeg (PConst (bv2nat carry_19))) (PConst 18446744073709551616))) (PSub (PSub (PConst (bv2nat r11_5)) (PConst (bv2nat L0x55555557c018_1))) (PConst (bv2nat carry_18)))))
(assert (eqP (PMul (PConst (bv2nat carry_19)) (PSub (PConst (bv2nat carry_19)) (PConst 1))) (PConst 0)))
(assert (eqP (PConst (bv2nat carryo5_0)) (PConst (bv2nat carry_19))))
(assert (eqP (PAdd (PConst (bv2nat r13_6)) (PMul (PNeg (PConst (bv2nat carry_20))) (PConst 18446744073709551616))) (PSub (PSub (PConst (bv2nat r13_5)) (PConst 0)) (PConst (bv2nat carry_19)))))
(assert (eqP (PMul (PConst (bv2nat carry_20)) (PSub (PConst (bv2nat carry_20)) (PConst 1))) (PConst 0)))
(assert (eqP (PConst (bv2nat carryo6_0)) (PConst (bv2nat carry_20))))
(assert (eqP (PMul (PMul (PSub (PConst (bv2nat carryo5_0)) (PConst 0)) (PSub (PConst (bv2nat carryo4_0)) (PConst 1))) (PSub (PConst (bv2nat carryo6_0)) (PConst 1))) (PConst 0)))
(assert (eqP (PMul (PSub (PConst (bv2nat carryo4_0)) (PConst 0)) (PSub (PConst (bv2nat carryo6_0)) (PConst 0))) (PConst 0)))
(assert (eqP (PMul (PSub (PConst (bv2nat carryo5_0)) (PConst 1)) (PSub (PConst (bv2nat carryo4_0)) (PConst 1))) (PConst 1)))
(assert (eqP (PMul (PSub (PConst (bv2nat carryo5_0)) (PConst 1)) (PSub (PConst (bv2nat carryo6_0)) (PConst 1))) (PConst 1)))
(assert (eqP (PConst (bv2nat r8_7)) (PAdd (PMul (PConst (bv2nat carry_20)) (PConst (bv2nat rax_2))) (PMul (PSub (PConst 1) (PConst (bv2nat carry_20))) (PConst (bv2nat r8_6))))))
(assert (eqP (PConst (bv2nat r9_7)) (PAdd (PMul (PConst (bv2nat carry_20)) (PConst (bv2nat rdx_2))) (PMul (PSub (PConst 1) (PConst (bv2nat carry_20))) (PConst (bv2nat r9_6))))))
(assert (eqP (PConst (bv2nat L0x7fffffffdc90_1)) (PConst (bv2nat r8_7))))
(assert (eqP (PConst (bv2nat r10_7)) (PAdd (PMul (PConst (bv2nat carry_20)) (PConst (bv2nat rcx_2))) (PMul (PSub (PConst 1) (PConst (bv2nat carry_20))) (PConst (bv2nat r10_6))))))
(assert (eqP (PConst (bv2nat L0x7fffffffdc98_1)) (PConst (bv2nat r9_7))))
(assert (eqP (PConst (bv2nat r11_7)) (PAdd (PMul (PConst (bv2nat carry_20)) (PConst (bv2nat r12_2))) (PMul (PSub (PConst 1) (PConst (bv2nat carry_20))) (PConst (bv2nat r11_6))))))
(assert (eqP (PConst (bv2nat L0x7fffffffdca0_1)) (PConst (bv2nat r10_7))))
(assert (eqP (PConst (bv2nat L0x7fffffffdca8_1)) (PConst (bv2nat r11_7))))
(assert (eqP (PConst (bv2nat c0_1)) (PConst (bv2nat L0x7fffffffdc90_1))))
(assert (eqP (PConst (bv2nat c1_1)) (PConst (bv2nat L0x7fffffffdc98_1))))
(assert (eqP (PConst (bv2nat c2_1)) (PConst (bv2nat L0x7fffffffdca0_1))))
(assert (eqP (PConst (bv2nat c3_1)) (PConst (bv2nat L0x7fffffffdca8_1))))
; postcondition
(assert (not (and (bvult (bvadd (bvmul ((_ zero_extend 192) c0_1) #x0000000000000000000000000000000000000000000000000000000000000001) (bvadd (bvmul ((_ zero_extend 192) c1_1) #x0000000000000000000000000000000000000000000000010000000000000000) (bvadd (bvmul ((_ zero_extend 192) c2_1) #x0000000000000000000000000000000100000000000000000000000000000000) (bvmul ((_ zero_extend 192) c3_1) #x0000000000000001000000000000000000000000000000000000000000000000)))) (bvadd (bvmul ((_ zero_extend 192) m0_0) #x0000000000000000000000000000000000000000000000000000000000000001) (bvadd (bvmul ((_ zero_extend 192) m1_0) #x0000000000000000000000000000000000000000000000010000000000000000) (bvadd (bvmul ((_ zero_extend 192) m2_0) #x0000000000000000000000000000000100000000000000000000000000000000) (bvmul ((_ zero_extend 192) m3_0) #x0000000000000001000000000000000000000000000000000000000000000000))))) (eqmodP1 (PAdd (PAdd (PAdd (PConst (bv2nat c0_1)) (PMul (PConst (bv2nat c1_1)) (PPow (PConst 2) 64))) (PMul (PConst (bv2nat c2_1)) (PPow (PConst 2) 128))) (PMul (PConst (bv2nat c3_1)) (PPow (PConst 2) 192))) (PMul (PAdd (PAdd (PAdd (PConst (bv2nat a0_0)) (PMul (PConst (bv2nat a1_0)) (PPow (PConst 2) 64))) (PMul (PConst (bv2nat a2_0)) (PPow (PConst 2) 128))) (PMul (PConst (bv2nat a3_0)) (PPow (PConst 2) 192))) (PConst 3)) (PAdd (PAdd (PAdd (PConst (bv2nat m0_0)) (PMul (PConst (bv2nat m1_0)) (PPow (PConst 2) 64))) (PMul (PConst (bv2nat m2_0)) (PPow (PConst 2) 128))) (PMul (PConst (bv2nat m3_0)) (PPow (PConst 2) 192)))))))
; check
(check-sat)
(exit)
